c A SAT instance generated from a 3-CNF formula that had 40 clauses and 10 variables
p cnf 10 40
1 9 7 0
-3 -6 10 0
-1 4 -6 0
2 1 4 0
-7 -10 9 0
8 -3 4 0
-10 1 4 0
1 -10 -6 0
-5 4 10 0
8 -2 -3 0
3 -6 7 0
-3 6 10 0
-9 4 10 0
-5 -8 -10 0
-8 -6 -10 0
2 -1 4 0
-8 9 -5 0
-9 4 -7 0
-4 -2 -5 0
-10 3 -4 0
-7 -1 5 0
-3 9 -4 0
9 2 -7 0
-7 4 -1 0
9 8 -10 0
-8 2 6 0
-6 -2 10 0
-2 10 1 0
4 5 -6 0
-2 -10 5 0
5 6 -3 0
4 7 1 0
-7 5 1 0
8 2 7 0
3 10 4 0
9 7 4 0
-3 5 2 0
5 8 -3 0
5 -7 -8 0
10 -2 3 0
